NAME: tsp20-50
TYPE: TSP
DIMENSION: 20
EDGE_WEIGHT_TYPE: EUC_2D
NODE_COORD_SECTION
0 48 84
1 1 39
2 80 55
3 21 12
4 47 70
5 80 92
6 58 6
7 31 10
8 80 63
9 52 18
10 53 49
11 28 67
12 98 54
13 9 47
14 25 73
15 76 77
16 31 64
17 68 93
18 73 50
19 87 44
EOF